\ENCODING=ISO-8859-1
\Problem name: kMIS

Maximize
 obj: x1 + x2 + x3 + x4 + x5 + x6 + x7 + x8 + x9 + x10 + x11 + x12 + x13 + x14
      + x15 + x16 + x17 + x18 + x19 + x20 + x21 + x22 + x23 + x24 + x25 + x26
      + x27 + x28 + x29 + x30 + x31 + x32 + x33 + x34 + x35 + x36 + x37 + x38
      + x39 + x40 + x41 + x42 + x43 + x44 + x45
Subject To
 c1:    x46 + x47 + x48 + x49 + x50 + x51 + x52 + x53 + x54 + x55 + x56 + x57
        + x58 + x59 + x60 + x61 + x62 + x63 + x64 + x65 + x66 + x67 + x68 + x69
        + x70 + x71 + x72 + x73 + x74 + x75 + x76 + x77 + x78 + x79 + x80 + x81
        + x82 + x83 + x84 + x85 + x86 + x87 + x88 + x89 + x90  = 13
 c2:    x1 + x46 <= 1
 c3:    x2 + x46 <= 1
 c4:    x3 + x46 <= 1
 c5:    x4 + x46 <= 1
 c6:    x5 + x46 <= 1
 c7:    x6 + x46 <= 1
 c8:    x7 + x46 <= 1
 c9:    x14 + x46 <= 1
 c10:   x15 + x46 <= 1
 c11:   x16 + x46 <= 1
 c12:   x19 + x46 <= 1
 c13:   x21 + x46 <= 1
 c14:   x22 + x46 <= 1
 c15:   x23 + x46 <= 1
 c16:   x25 + x46 <= 1
 c17:   x27 + x46 <= 1
 c18:   x28 + x46 <= 1
 c19:   x30 + x46 <= 1
 c20:   x34 + x46 <= 1
 c21:   x35 + x46 <= 1
 c22:   x36 + x46 <= 1
 c23:   x43 + x46 <= 1
 c24:   x45 + x46 <= 1
 c25:   x1 + x47 <= 1
 c26:   x6 + x47 <= 1
 c27:   x7 + x47 <= 1
 c28:   x8 + x47 <= 1
 c29:   x10 + x47 <= 1
 c30:   x11 + x47 <= 1
 c31:   x13 + x47 <= 1
 c32:   x14 + x47 <= 1
 c33:   x16 + x47 <= 1
 c34:   x19 + x47 <= 1
 c35:   x20 + x47 <= 1
 c36:   x23 + x47 <= 1
 c37:   x25 + x47 <= 1
 c38:   x29 + x47 <= 1
 c39:   x34 + x47 <= 1
 c40:   x35 + x47 <= 1
 c41:   x37 + x47 <= 1
 c42:   x39 + x47 <= 1
 c43:   x40 + x47 <= 1
 c44:   x42 + x47 <= 1
 c45:   x44 + x47 <= 1
 c46:   x1 + x48 <= 1
 c47:   x3 + x48 <= 1
 c48:   x5 + x48 <= 1
 c49:   x7 + x48 <= 1
 c50:   x9 + x48 <= 1
 c51:   x11 + x48 <= 1
 c52:   x14 + x48 <= 1
 c53:   x16 + x48 <= 1
 c54:   x17 + x48 <= 1
 c55:   x23 + x48 <= 1
 c56:   x24 + x48 <= 1
 c57:   x25 + x48 <= 1
 c58:   x26 + x48 <= 1
 c59:   x27 + x48 <= 1
 c60:   x28 + x48 <= 1
 c61:   x31 + x48 <= 1
 c62:   x32 + x48 <= 1
 c63:   x33 + x48 <= 1
 c64:   x35 + x48 <= 1
 c65:   x38 + x48 <= 1
 c66:   x39 + x48 <= 1
 c67:   x41 + x48 <= 1
 c68:   x43 + x48 <= 1
 c69:   x45 + x48 <= 1
 c70:   x3 + x49 <= 1
 c71:   x4 + x49 <= 1
 c72:   x7 + x49 <= 1
 c73:   x10 + x49 <= 1
 c74:   x12 + x49 <= 1
 c75:   x13 + x49 <= 1
 c76:   x14 + x49 <= 1
 c77:   x17 + x49 <= 1
 c78:   x20 + x49 <= 1
 c79:   x22 + x49 <= 1
 c80:   x25 + x49 <= 1
 c81:   x26 + x49 <= 1
 c82:   x29 + x49 <= 1
 c83:   x31 + x49 <= 1
 c84:   x33 + x49 <= 1
 c85:   x34 + x49 <= 1
 c86:   x36 + x49 <= 1
 c87:   x37 + x49 <= 1
 c88:   x40 + x49 <= 1
 c89:   x43 + x49 <= 1
 c90:   x44 + x49 <= 1
 c91:   x1 + x50 <= 1
 c92:   x2 + x50 <= 1
 c93:   x5 + x50 <= 1
 c94:   x8 + x50 <= 1
 c95:   x9 + x50 <= 1
 c96:   x13 + x50 <= 1
 c97:   x15 + x50 <= 1
 c98:   x17 + x50 <= 1
 c99:   x18 + x50 <= 1
 c100:  x20 + x50 <= 1
 c101:  x21 + x50 <= 1
 c102:  x27 + x50 <= 1
 c103:  x28 + x50 <= 1
 c104:  x29 + x50 <= 1
 c105:  x32 + x50 <= 1
 c106:  x34 + x50 <= 1
 c107:  x39 + x50 <= 1
 c108:  x41 + x50 <= 1
 c109:  x42 + x50 <= 1
 c110:  x44 + x50 <= 1
 c111:  x45 + x50 <= 1
 c112:  x1 + x51 <= 1
 c113:  x2 + x51 <= 1
 c114:  x5 + x51 <= 1
 c115:  x8 + x51 <= 1
 c116:  x9 + x51 <= 1
 c117:  x10 + x51 <= 1
 c118:  x11 + x51 <= 1
 c119:  x12 + x51 <= 1
 c120:  x14 + x51 <= 1
 c121:  x17 + x51 <= 1
 c122:  x18 + x51 <= 1
 c123:  x19 + x51 <= 1
 c124:  x21 + x51 <= 1
 c125:  x24 + x51 <= 1
 c126:  x27 + x51 <= 1
 c127:  x28 + x51 <= 1
 c128:  x29 + x51 <= 1
 c129:  x30 + x51 <= 1
 c130:  x31 + x51 <= 1
 c131:  x34 + x51 <= 1
 c132:  x37 + x51 <= 1
 c133:  x38 + x51 <= 1
 c134:  x40 + x51 <= 1
 c135:  x44 + x51 <= 1
 c136:  x1 + x52 <= 1
 c137:  x3 + x52 <= 1
 c138:  x4 + x52 <= 1
 c139:  x5 + x52 <= 1
 c140:  x7 + x52 <= 1
 c141:  x9 + x52 <= 1
 c142:  x10 + x52 <= 1
 c143:  x11 + x52 <= 1
 c144:  x14 + x52 <= 1
 c145:  x15 + x52 <= 1
 c146:  x17 + x52 <= 1
 c147:  x19 + x52 <= 1
 c148:  x20 + x52 <= 1
 c149:  x24 + x52 <= 1
 c150:  x27 + x52 <= 1
 c151:  x30 + x52 <= 1
 c152:  x31 + x52 <= 1
 c153:  x32 + x52 <= 1
 c154:  x35 + x52 <= 1
 c155:  x37 + x52 <= 1
 c156:  x38 + x52 <= 1
 c157:  x39 + x52 <= 1
 c158:  x41 + x52 <= 1
 c159:  x42 + x52 <= 1
 c160:  x43 + x52 <= 1
 c161:  x44 + x52 <= 1
 c162:  x1 + x53 <= 1
 c163:  x3 + x53 <= 1
 c164:  x4 + x53 <= 1
 c165:  x6 + x53 <= 1
 c166:  x9 + x53 <= 1
 c167:  x10 + x53 <= 1
 c168:  x12 + x53 <= 1
 c169:  x13 + x53 <= 1
 c170:  x18 + x53 <= 1
 c171:  x19 + x53 <= 1
 c172:  x20 + x53 <= 1
 c173:  x23 + x53 <= 1
 c174:  x25 + x53 <= 1
 c175:  x26 + x53 <= 1
 c176:  x30 + x53 <= 1
 c177:  x32 + x53 <= 1
 c178:  x33 + x53 <= 1
 c179:  x34 + x53 <= 1
 c180:  x35 + x53 <= 1
 c181:  x37 + x53 <= 1
 c182:  x38 + x53 <= 1
 c183:  x39 + x53 <= 1
 c184:  x40 + x53 <= 1
 c185:  x41 + x53 <= 1
 c186:  x44 + x53 <= 1
 c187:  x2 + x54 <= 1
 c188:  x4 + x54 <= 1
 c189:  x8 + x54 <= 1
 c190:  x11 + x54 <= 1
 c191:  x14 + x54 <= 1
 c192:  x15 + x54 <= 1
 c193:  x16 + x54 <= 1
 c194:  x17 + x54 <= 1
 c195:  x20 + x54 <= 1
 c196:  x25 + x54 <= 1
 c197:  x27 + x54 <= 1
 c198:  x30 + x54 <= 1
 c199:  x31 + x54 <= 1
 c200:  x34 + x54 <= 1
 c201:  x37 + x54 <= 1
 c202:  x39 + x54 <= 1
 c203:  x40 + x54 <= 1
 c204:  x42 + x54 <= 1
 c205:  x43 + x54 <= 1
 c206:  x1 + x55 <= 1
 c207:  x3 + x55 <= 1
 c208:  x7 + x55 <= 1
 c209:  x8 + x55 <= 1
 c210:  x11 + x55 <= 1
 c211:  x12 + x55 <= 1
 c212:  x13 + x55 <= 1
 c213:  x14 + x55 <= 1
 c214:  x16 + x55 <= 1
 c215:  x17 + x55 <= 1
 c216:  x18 + x55 <= 1
 c217:  x20 + x55 <= 1
 c218:  x23 + x55 <= 1
 c219:  x25 + x55 <= 1
 c220:  x28 + x55 <= 1
 c221:  x29 + x55 <= 1
 c222:  x31 + x55 <= 1
 c223:  x32 + x55 <= 1
 c224:  x35 + x55 <= 1
 c225:  x38 + x55 <= 1
 c226:  x39 + x55 <= 1
 c227:  x40 + x55 <= 1
 c228:  x3 + x56 <= 1
 c229:  x4 + x56 <= 1
 c230:  x7 + x56 <= 1
 c231:  x8 + x56 <= 1
 c232:  x11 + x56 <= 1
 c233:  x13 + x56 <= 1
 c234:  x15 + x56 <= 1
 c235:  x16 + x56 <= 1
 c236:  x19 + x56 <= 1
 c237:  x21 + x56 <= 1
 c238:  x23 + x56 <= 1
 c239:  x26 + x56 <= 1
 c240:  x27 + x56 <= 1
 c241:  x28 + x56 <= 1
 c242:  x31 + x56 <= 1
 c243:  x35 + x56 <= 1
 c244:  x37 + x56 <= 1
 c245:  x38 + x56 <= 1
 c246:  x39 + x56 <= 1
 c247:  x40 + x56 <= 1
 c248:  x41 + x56 <= 1
 c249:  x42 + x56 <= 1
 c250:  x43 + x56 <= 1
 c251:  x1 + x57 <= 1
 c252:  x2 + x57 <= 1
 c253:  x3 + x57 <= 1
 c254:  x4 + x57 <= 1
 c255:  x6 + x57 <= 1
 c256:  x10 + x57 <= 1
 c257:  x11 + x57 <= 1
 c258:  x16 + x57 <= 1
 c259:  x17 + x57 <= 1
 c260:  x19 + x57 <= 1
 c261:  x22 + x57 <= 1
 c262:  x23 + x57 <= 1
 c263:  x24 + x57 <= 1
 c264:  x25 + x57 <= 1
 c265:  x26 + x57 <= 1
 c266:  x28 + x57 <= 1
 c267:  x30 + x57 <= 1
 c268:  x32 + x57 <= 1
 c269:  x36 + x57 <= 1
 c270:  x40 + x57 <= 1
 c271:  x41 + x57 <= 1
 c272:  x42 + x57 <= 1
 c273:  x45 + x57 <= 1
 c274:  x4 + x58 <= 1
 c275:  x8 + x58 <= 1
 c276:  x9 + x58 <= 1
 c277:  x10 + x58 <= 1
 c278:  x12 + x58 <= 1
 c279:  x13 + x58 <= 1
 c280:  x14 + x58 <= 1
 c281:  x15 + x58 <= 1
 c282:  x17 + x58 <= 1
 c283:  x18 + x58 <= 1
 c284:  x19 + x58 <= 1
 c285:  x20 + x58 <= 1
 c286:  x21 + x58 <= 1
 c287:  x23 + x58 <= 1
 c288:  x24 + x58 <= 1
 c289:  x26 + x58 <= 1
 c290:  x27 + x58 <= 1
 c291:  x30 + x58 <= 1
 c292:  x31 + x58 <= 1
 c293:  x32 + x58 <= 1
 c294:  x33 + x58 <= 1
 c295:  x35 + x58 <= 1
 c296:  x36 + x58 <= 1
 c297:  x39 + x58 <= 1
 c298:  x40 + x58 <= 1
 c299:  x41 + x58 <= 1
 c300:  x43 + x58 <= 1
 c301:  x45 + x58 <= 1
 c302:  x2 + x59 <= 1
 c303:  x4 + x59 <= 1
 c304:  x6 + x59 <= 1
 c305:  x10 + x59 <= 1
 c306:  x12 + x59 <= 1
 c307:  x13 + x59 <= 1
 c308:  x15 + x59 <= 1
 c309:  x18 + x59 <= 1
 c310:  x19 + x59 <= 1
 c311:  x22 + x59 <= 1
 c312:  x25 + x59 <= 1
 c313:  x26 + x59 <= 1
 c314:  x28 + x59 <= 1
 c315:  x29 + x59 <= 1
 c316:  x30 + x59 <= 1
 c317:  x32 + x59 <= 1
 c318:  x35 + x59 <= 1
 c319:  x36 + x59 <= 1
 c320:  x37 + x59 <= 1
 c321:  x38 + x59 <= 1
 c322:  x39 + x59 <= 1
 c323:  x40 + x59 <= 1
 c324:  x41 + x59 <= 1
 c325:  x42 + x59 <= 1
 c326:  x44 + x59 <= 1
 c327:  x45 + x59 <= 1
 c328:  x1 + x60 <= 1
 c329:  x3 + x60 <= 1
 c330:  x4 + x60 <= 1
 c331:  x7 + x60 <= 1
 c332:  x10 + x60 <= 1
 c333:  x11 + x60 <= 1
 c334:  x12 + x60 <= 1
 c335:  x13 + x60 <= 1
 c336:  x14 + x60 <= 1
 c337:  x15 + x60 <= 1
 c338:  x17 + x60 <= 1
 c339:  x19 + x60 <= 1
 c340:  x20 + x60 <= 1
 c341:  x22 + x60 <= 1
 c342:  x24 + x60 <= 1
 c343:  x26 + x60 <= 1
 c344:  x27 + x60 <= 1
 c345:  x36 + x60 <= 1
 c346:  x37 + x60 <= 1
 c347:  x41 + x60 <= 1
 c348:  x42 + x60 <= 1
 c349:  x2 + x61 <= 1
 c350:  x4 + x61 <= 1
 c351:  x7 + x61 <= 1
 c352:  x8 + x61 <= 1
 c353:  x9 + x61 <= 1
 c354:  x12 + x61 <= 1
 c355:  x13 + x61 <= 1
 c356:  x14 + x61 <= 1
 c357:  x15 + x61 <= 1
 c358:  x16 + x61 <= 1
 c359:  x17 + x61 <= 1
 c360:  x19 + x61 <= 1
 c361:  x22 + x61 <= 1
 c362:  x23 + x61 <= 1
 c363:  x26 + x61 <= 1
 c364:  x28 + x61 <= 1
 c365:  x29 + x61 <= 1
 c366:  x30 + x61 <= 1
 c367:  x31 + x61 <= 1
 c368:  x33 + x61 <= 1
 c369:  x34 + x61 <= 1
 c370:  x35 + x61 <= 1
 c371:  x39 + x61 <= 1
 c372:  x41 + x61 <= 1
 c373:  x42 + x61 <= 1
 c374:  x43 + x61 <= 1
 c375:  x44 + x61 <= 1
 c376:  x45 + x61 <= 1
 c377:  x1 + x62 <= 1
 c378:  x2 + x62 <= 1
 c379:  x3 + x62 <= 1
 c380:  x10 + x62 <= 1
 c381:  x11 + x62 <= 1
 c382:  x12 + x62 <= 1
 c383:  x13 + x62 <= 1
 c384:  x14 + x62 <= 1
 c385:  x15 + x62 <= 1
 c386:  x19 + x62 <= 1
 c387:  x21 + x62 <= 1
 c388:  x23 + x62 <= 1
 c389:  x24 + x62 <= 1
 c390:  x25 + x62 <= 1
 c391:  x29 + x62 <= 1
 c392:  x31 + x62 <= 1
 c393:  x34 + x62 <= 1
 c394:  x40 + x62 <= 1
 c395:  x42 + x62 <= 1
 c396:  x43 + x62 <= 1
 c397:  x44 + x62 <= 1
 c398:  x45 + x62 <= 1
 c399:  x1 + x63 <= 1
 c400:  x2 + x63 <= 1
 c401:  x3 + x63 <= 1
 c402:  x4 + x63 <= 1
 c403:  x5 + x63 <= 1
 c404:  x6 + x63 <= 1
 c405:  x8 + x63 <= 1
 c406:  x9 + x63 <= 1
 c407:  x10 + x63 <= 1
 c408:  x12 + x63 <= 1
 c409:  x13 + x63 <= 1
 c410:  x14 + x63 <= 1
 c411:  x15 + x63 <= 1
 c412:  x16 + x63 <= 1
 c413:  x18 + x63 <= 1
 c414:  x19 + x63 <= 1
 c415:  x21 + x63 <= 1
 c416:  x22 + x63 <= 1
 c417:  x25 + x63 <= 1
 c418:  x27 + x63 <= 1
 c419:  x28 + x63 <= 1
 c420:  x31 + x63 <= 1
 c421:  x33 + x63 <= 1
 c422:  x35 + x63 <= 1
 c423:  x36 + x63 <= 1
 c424:  x40 + x63 <= 1
 c425:  x43 + x63 <= 1
 c426:  x44 + x63 <= 1
 c427:  x1 + x64 <= 1
 c428:  x2 + x64 <= 1
 c429:  x4 + x64 <= 1
 c430:  x5 + x64 <= 1
 c431:  x6 + x64 <= 1
 c432:  x7 + x64 <= 1
 c433:  x11 + x64 <= 1
 c434:  x12 + x64 <= 1
 c435:  x13 + x64 <= 1
 c436:  x15 + x64 <= 1
 c437:  x20 + x64 <= 1
 c438:  x21 + x64 <= 1
 c439:  x23 + x64 <= 1
 c440:  x26 + x64 <= 1
 c441:  x27 + x64 <= 1
 c442:  x30 + x64 <= 1
 c443:  x31 + x64 <= 1
 c444:  x32 + x64 <= 1
 c445:  x33 + x64 <= 1
 c446:  x34 + x64 <= 1
 c447:  x36 + x64 <= 1
 c448:  x38 + x64 <= 1
 c449:  x40 + x64 <= 1
 c450:  x41 + x64 <= 1
 c451:  x42 + x64 <= 1
 c452:  x43 + x64 <= 1
 c453:  x45 + x64 <= 1
 c454:  x2 + x65 <= 1
 c455:  x3 + x65 <= 1
 c456:  x4 + x65 <= 1
 c457:  x5 + x65 <= 1
 c458:  x10 + x65 <= 1
 c459:  x11 + x65 <= 1
 c460:  x12 + x65 <= 1
 c461:  x13 + x65 <= 1
 c462:  x18 + x65 <= 1
 c463:  x19 + x65 <= 1
 c464:  x20 + x65 <= 1
 c465:  x22 + x65 <= 1
 c466:  x23 + x65 <= 1
 c467:  x24 + x65 <= 1
 c468:  x25 + x65 <= 1
 c469:  x28 + x65 <= 1
 c470:  x29 + x65 <= 1
 c471:  x32 + x65 <= 1
 c472:  x33 + x65 <= 1
 c473:  x34 + x65 <= 1
 c474:  x35 + x65 <= 1
 c475:  x40 + x65 <= 1
 c476:  x45 + x65 <= 1
 c477:  x1 + x66 <= 1
 c478:  x3 + x66 <= 1
 c479:  x5 + x66 <= 1
 c480:  x7 + x66 <= 1
 c481:  x8 + x66 <= 1
 c482:  x9 + x66 <= 1
 c483:  x11 + x66 <= 1
 c484:  x15 + x66 <= 1
 c485:  x16 + x66 <= 1
 c486:  x17 + x66 <= 1
 c487:  x18 + x66 <= 1
 c488:  x19 + x66 <= 1
 c489:  x21 + x66 <= 1
 c490:  x22 + x66 <= 1
 c491:  x23 + x66 <= 1
 c492:  x24 + x66 <= 1
 c493:  x26 + x66 <= 1
 c494:  x27 + x66 <= 1
 c495:  x28 + x66 <= 1
 c496:  x29 + x66 <= 1
 c497:  x37 + x66 <= 1
 c498:  x40 + x66 <= 1
 c499:  x44 + x66 <= 1
 c500:  x45 + x66 <= 1
 c501:  x3 + x67 <= 1
 c502:  x4 + x67 <= 1
 c503:  x7 + x67 <= 1
 c504:  x13 + x67 <= 1
 c505:  x14 + x67 <= 1
 c506:  x15 + x67 <= 1
 c507:  x16 + x67 <= 1
 c508:  x17 + x67 <= 1
 c509:  x18 + x67 <= 1
 c510:  x20 + x67 <= 1
 c511:  x21 + x67 <= 1
 c512:  x24 + x67 <= 1
 c513:  x25 + x67 <= 1
 c514:  x31 + x67 <= 1
 c515:  x33 + x67 <= 1
 c516:  x36 + x67 <= 1
 c517:  x37 + x67 <= 1
 c518:  x38 + x67 <= 1
 c519:  x40 + x67 <= 1
 c520:  x42 + x67 <= 1
 c521:  x44 + x67 <= 1
 c522:  x45 + x67 <= 1
 c523:  x7 + x68 <= 1
 c524:  x8 + x68 <= 1
 c525:  x9 + x68 <= 1
 c526:  x10 + x68 <= 1
 c527:  x12 + x68 <= 1
 c528:  x20 + x68 <= 1
 c529:  x21 + x68 <= 1
 c530:  x23 + x68 <= 1
 c531:  x24 + x68 <= 1
 c532:  x27 + x68 <= 1
 c533:  x32 + x68 <= 1
 c534:  x33 + x68 <= 1
 c535:  x36 + x68 <= 1
 c536:  x38 + x68 <= 1
 c537:  x40 + x68 <= 1
 c538:  x45 + x68 <= 1
 c539:  x2 + x69 <= 1
 c540:  x4 + x69 <= 1
 c541:  x5 + x69 <= 1
 c542:  x13 + x69 <= 1
 c543:  x15 + x69 <= 1
 c544:  x17 + x69 <= 1
 c545:  x22 + x69 <= 1
 c546:  x24 + x69 <= 1
 c547:  x25 + x69 <= 1
 c548:  x27 + x69 <= 1
 c549:  x29 + x69 <= 1
 c550:  x34 + x69 <= 1
 c551:  x35 + x69 <= 1
 c552:  x39 + x69 <= 1
 c553:  x42 + x69 <= 1
 c554:  x43 + x69 <= 1
 c555:  x2 + x70 <= 1
 c556:  x3 + x70 <= 1
 c557:  x5 + x70 <= 1
 c558:  x6 + x70 <= 1
 c559:  x7 + x70 <= 1
 c560:  x8 + x70 <= 1
 c561:  x9 + x70 <= 1
 c562:  x10 + x70 <= 1
 c563:  x11 + x70 <= 1
 c564:  x12 + x70 <= 1
 c565:  x13 + x70 <= 1
 c566:  x14 + x70 <= 1
 c567:  x15 + x70 <= 1
 c568:  x17 + x70 <= 1
 c569:  x18 + x70 <= 1
 c570:  x19 + x70 <= 1
 c571:  x21 + x70 <= 1
 c572:  x22 + x70 <= 1
 c573:  x23 + x70 <= 1
 c574:  x28 + x70 <= 1
 c575:  x29 + x70 <= 1
 c576:  x30 + x70 <= 1
 c577:  x31 + x70 <= 1
 c578:  x32 + x70 <= 1
 c579:  x33 + x70 <= 1
 c580:  x34 + x70 <= 1
 c581:  x35 + x70 <= 1
 c582:  x41 + x70 <= 1
 c583:  x42 + x70 <= 1
 c584:  x44 + x70 <= 1
 c585:  x45 + x70 <= 1
 c586:  x2 + x71 <= 1
 c587:  x3 + x71 <= 1
 c588:  x5 + x71 <= 1
 c589:  x6 + x71 <= 1
 c590:  x7 + x71 <= 1
 c591:  x9 + x71 <= 1
 c592:  x11 + x71 <= 1
 c593:  x12 + x71 <= 1
 c594:  x14 + x71 <= 1
 c595:  x15 + x71 <= 1
 c596:  x18 + x71 <= 1
 c597:  x22 + x71 <= 1
 c598:  x23 + x71 <= 1
 c599:  x25 + x71 <= 1
 c600:  x26 + x71 <= 1
 c601:  x27 + x71 <= 1
 c602:  x29 + x71 <= 1
 c603:  x30 + x71 <= 1
 c604:  x33 + x71 <= 1
 c605:  x34 + x71 <= 1
 c606:  x36 + x71 <= 1
 c607:  x40 + x71 <= 1
 c608:  x41 + x71 <= 1
 c609:  x42 + x71 <= 1
 c610:  x45 + x71 <= 1
 c611:  x1 + x72 <= 1
 c612:  x2 + x72 <= 1
 c613:  x4 + x72 <= 1
 c614:  x5 + x72 <= 1
 c615:  x6 + x72 <= 1
 c616:  x7 + x72 <= 1
 c617:  x10 + x72 <= 1
 c618:  x17 + x72 <= 1
 c619:  x18 + x72 <= 1
 c620:  x19 + x72 <= 1
 c621:  x21 + x72 <= 1
 c622:  x23 + x72 <= 1
 c623:  x24 + x72 <= 1
 c624:  x25 + x72 <= 1
 c625:  x26 + x72 <= 1
 c626:  x27 + x72 <= 1
 c627:  x28 + x72 <= 1
 c628:  x30 + x72 <= 1
 c629:  x31 + x72 <= 1
 c630:  x32 + x72 <= 1
 c631:  x33 + x72 <= 1
 c632:  x35 + x72 <= 1
 c633:  x36 + x72 <= 1
 c634:  x42 + x72 <= 1
 c635:  x1 + x73 <= 1
 c636:  x2 + x73 <= 1
 c637:  x7 + x73 <= 1
 c638:  x9 + x73 <= 1
 c639:  x10 + x73 <= 1
 c640:  x12 + x73 <= 1
 c641:  x14 + x73 <= 1
 c642:  x17 + x73 <= 1
 c643:  x18 + x73 <= 1
 c644:  x19 + x73 <= 1
 c645:  x21 + x73 <= 1
 c646:  x22 + x73 <= 1
 c647:  x24 + x73 <= 1
 c648:  x25 + x73 <= 1
 c649:  x27 + x73 <= 1
 c650:  x30 + x73 <= 1
 c651:  x32 + x73 <= 1
 c652:  x35 + x73 <= 1
 c653:  x36 + x73 <= 1
 c654:  x38 + x73 <= 1
 c655:  x39 + x73 <= 1
 c656:  x44 + x73 <= 1
 c657:  x2 + x74 <= 1
 c658:  x5 + x74 <= 1
 c659:  x7 + x74 <= 1
 c660:  x8 + x74 <= 1
 c661:  x9 + x74 <= 1
 c662:  x10 + x74 <= 1
 c663:  x11 + x74 <= 1
 c664:  x12 + x74 <= 1
 c665:  x13 + x74 <= 1
 c666:  x20 + x74 <= 1
 c667:  x21 + x74 <= 1
 c668:  x22 + x74 <= 1
 c669:  x23 + x74 <= 1
 c670:  x25 + x74 <= 1
 c671:  x33 + x74 <= 1
 c672:  x35 + x74 <= 1
 c673:  x36 + x74 <= 1
 c674:  x37 + x74 <= 1
 c675:  x38 + x74 <= 1
 c676:  x39 + x74 <= 1
 c677:  x40 + x74 <= 1
 c678:  x41 + x74 <= 1
 c679:  x45 + x74 <= 1
 c680:  x2 + x75 <= 1
 c681:  x3 + x75 <= 1
 c682:  x4 + x75 <= 1
 c683:  x5 + x75 <= 1
 c684:  x9 + x75 <= 1
 c685:  x10 + x75 <= 1
 c686:  x12 + x75 <= 1
 c687:  x13 + x75 <= 1
 c688:  x15 + x75 <= 1
 c689:  x16 + x75 <= 1
 c690:  x18 + x75 <= 1
 c691:  x19 + x75 <= 1
 c692:  x20 + x75 <= 1
 c693:  x22 + x75 <= 1
 c694:  x25 + x75 <= 1
 c695:  x26 + x75 <= 1
 c696:  x28 + x75 <= 1
 c697:  x30 + x75 <= 1
 c698:  x32 + x75 <= 1
 c699:  x34 + x75 <= 1
 c700:  x35 + x75 <= 1
 c701:  x37 + x75 <= 1
 c702:  x39 + x75 <= 1
 c703:  x40 + x75 <= 1
 c704:  x41 + x75 <= 1
 c705:  x42 + x75 <= 1
 c706:  x43 + x75 <= 1
 c707:  x45 + x75 <= 1
 c708:  x1 + x76 <= 1
 c709:  x3 + x76 <= 1
 c710:  x5 + x76 <= 1
 c711:  x8 + x76 <= 1
 c712:  x9 + x76 <= 1
 c713:  x10 + x76 <= 1
 c714:  x11 + x76 <= 1
 c715:  x12 + x76 <= 1
 c716:  x13 + x76 <= 1
 c717:  x15 + x76 <= 1
 c718:  x16 + x76 <= 1
 c719:  x17 + x76 <= 1
 c720:  x18 + x76 <= 1
 c721:  x19 + x76 <= 1
 c722:  x20 + x76 <= 1
 c723:  x23 + x76 <= 1
 c724:  x24 + x76 <= 1
 c725:  x27 + x76 <= 1
 c726:  x31 + x76 <= 1
 c727:  x33 + x76 <= 1
 c728:  x34 + x76 <= 1
 c729:  x35 + x76 <= 1
 c730:  x38 + x76 <= 1
 c731:  x39 + x76 <= 1
 c732:  x43 + x76 <= 1
 c733:  x45 + x76 <= 1
 c734:  x1 + x77 <= 1
 c735:  x7 + x77 <= 1
 c736:  x8 + x77 <= 1
 c737:  x9 + x77 <= 1
 c738:  x11 + x77 <= 1
 c739:  x12 + x77 <= 1
 c740:  x15 + x77 <= 1
 c741:  x17 + x77 <= 1
 c742:  x19 + x77 <= 1
 c743:  x20 + x77 <= 1
 c744:  x21 + x77 <= 1
 c745:  x24 + x77 <= 1
 c746:  x26 + x77 <= 1
 c747:  x27 + x77 <= 1
 c748:  x31 + x77 <= 1
 c749:  x32 + x77 <= 1
 c750:  x34 + x77 <= 1
 c751:  x37 + x77 <= 1
 c752:  x39 + x77 <= 1
 c753:  x42 + x77 <= 1
 c754:  x44 + x77 <= 1
 c755:  x3 + x78 <= 1
 c756:  x4 + x78 <= 1
 c757:  x6 + x78 <= 1
 c758:  x7 + x78 <= 1
 c759:  x11 + x78 <= 1
 c760:  x13 + x78 <= 1
 c761:  x15 + x78 <= 1
 c762:  x21 + x78 <= 1
 c763:  x23 + x78 <= 1
 c764:  x25 + x78 <= 1
 c765:  x27 + x78 <= 1
 c766:  x30 + x78 <= 1
 c767:  x33 + x78 <= 1
 c768:  x35 + x78 <= 1
 c769:  x37 + x78 <= 1
 c770:  x38 + x78 <= 1
 c771:  x40 + x78 <= 1
 c772:  x43 + x78 <= 1
 c773:  x1 + x79 <= 1
 c774:  x4 + x79 <= 1
 c775:  x5 + x79 <= 1
 c776:  x6 + x79 <= 1
 c777:  x7 + x79 <= 1
 c778:  x9 + x79 <= 1
 c779:  x11 + x79 <= 1
 c780:  x13 + x79 <= 1
 c781:  x16 + x79 <= 1
 c782:  x17 + x79 <= 1
 c783:  x18 + x79 <= 1
 c784:  x19 + x79 <= 1
 c785:  x21 + x79 <= 1
 c786:  x22 + x79 <= 1
 c787:  x25 + x79 <= 1
 c788:  x26 + x79 <= 1
 c789:  x29 + x79 <= 1
 c790:  x30 + x79 <= 1
 c791:  x33 + x79 <= 1
 c792:  x37 + x79 <= 1
 c793:  x38 + x79 <= 1
 c794:  x39 + x79 <= 1
 c795:  x40 + x79 <= 1
 c796:  x44 + x79 <= 1
 c797:  x2 + x80 <= 1
 c798:  x4 + x80 <= 1
 c799:  x5 + x80 <= 1
 c800:  x7 + x80 <= 1
 c801:  x8 + x80 <= 1
 c802:  x10 + x80 <= 1
 c803:  x11 + x80 <= 1
 c804:  x13 + x80 <= 1
 c805:  x15 + x80 <= 1
 c806:  x16 + x80 <= 1
 c807:  x17 + x80 <= 1
 c808:  x19 + x80 <= 1
 c809:  x20 + x80 <= 1
 c810:  x21 + x80 <= 1
 c811:  x23 + x80 <= 1
 c812:  x30 + x80 <= 1
 c813:  x31 + x80 <= 1
 c814:  x33 + x80 <= 1
 c815:  x36 + x80 <= 1
 c816:  x37 + x80 <= 1
 c817:  x39 + x80 <= 1
 c818:  x40 + x80 <= 1
 c819:  x42 + x80 <= 1
 c820:  x43 + x80 <= 1
 c821:  x45 + x80 <= 1
 c822:  x1 + x81 <= 1
 c823:  x7 + x81 <= 1
 c824:  x8 + x81 <= 1
 c825:  x10 + x81 <= 1
 c826:  x11 + x81 <= 1
 c827:  x13 + x81 <= 1
 c828:  x14 + x81 <= 1
 c829:  x16 + x81 <= 1
 c830:  x23 + x81 <= 1
 c831:  x24 + x81 <= 1
 c832:  x29 + x81 <= 1
 c833:  x30 + x81 <= 1
 c834:  x33 + x81 <= 1
 c835:  x35 + x81 <= 1
 c836:  x36 + x81 <= 1
 c837:  x40 + x81 <= 1
 c838:  x41 + x81 <= 1
 c839:  x43 + x81 <= 1
 c840:  x1 + x82 <= 1
 c841:  x6 + x82 <= 1
 c842:  x7 + x82 <= 1
 c843:  x9 + x82 <= 1
 c844:  x10 + x82 <= 1
 c845:  x12 + x82 <= 1
 c846:  x13 + x82 <= 1
 c847:  x15 + x82 <= 1
 c848:  x18 + x82 <= 1
 c849:  x19 + x82 <= 1
 c850:  x20 + x82 <= 1
 c851:  x22 + x82 <= 1
 c852:  x24 + x82 <= 1
 c853:  x28 + x82 <= 1
 c854:  x32 + x82 <= 1
 c855:  x37 + x82 <= 1
 c856:  x39 + x82 <= 1
 c857:  x40 + x82 <= 1
 c858:  x41 + x82 <= 1
 c859:  x43 + x82 <= 1
 c860:  x44 + x82 <= 1
 c861:  x45 + x82 <= 1
 c862:  x1 + x83 <= 1
 c863:  x2 + x83 <= 1
 c864:  x6 + x83 <= 1
 c865:  x8 + x83 <= 1
 c866:  x13 + x83 <= 1
 c867:  x15 + x83 <= 1
 c868:  x18 + x83 <= 1
 c869:  x19 + x83 <= 1
 c870:  x21 + x83 <= 1
 c871:  x24 + x83 <= 1
 c872:  x28 + x83 <= 1
 c873:  x30 + x83 <= 1
 c874:  x32 + x83 <= 1
 c875:  x34 + x83 <= 1
 c876:  x36 + x83 <= 1
 c877:  x38 + x83 <= 1
 c878:  x42 + x83 <= 1
 c879:  x43 + x83 <= 1
 c880:  x45 + x83 <= 1
 c881:  x2 + x84 <= 1
 c882:  x6 + x84 <= 1
 c883:  x9 + x84 <= 1
 c884:  x12 + x84 <= 1
 c885:  x13 + x84 <= 1
 c886:  x14 + x84 <= 1
 c887:  x17 + x84 <= 1
 c888:  x18 + x84 <= 1
 c889:  x23 + x84 <= 1
 c890:  x25 + x84 <= 1
 c891:  x30 + x84 <= 1
 c892:  x31 + x84 <= 1
 c893:  x34 + x84 <= 1
 c894:  x37 + x84 <= 1
 c895:  x38 + x84 <= 1
 c896:  x39 + x84 <= 1
 c897:  x40 + x84 <= 1
 c898:  x41 + x84 <= 1
 c899:  x42 + x84 <= 1
 c900:  x1 + x85 <= 1
 c901:  x3 + x85 <= 1
 c902:  x7 + x85 <= 1
 c903:  x10 + x85 <= 1
 c904:  x11 + x85 <= 1
 c905:  x13 + x85 <= 1
 c906:  x15 + x85 <= 1
 c907:  x16 + x85 <= 1
 c908:  x17 + x85 <= 1
 c909:  x21 + x85 <= 1
 c910:  x23 + x85 <= 1
 c911:  x24 + x85 <= 1
 c912:  x27 + x85 <= 1
 c913:  x28 + x85 <= 1
 c914:  x29 + x85 <= 1
 c915:  x30 + x85 <= 1
 c916:  x31 + x85 <= 1
 c917:  x34 + x85 <= 1
 c918:  x35 + x85 <= 1
 c919:  x36 + x85 <= 1
 c920:  x37 + x85 <= 1
 c921:  x38 + x85 <= 1
 c922:  x39 + x85 <= 1
 c923:  x44 + x85 <= 1
 c924:  x1 + x86 <= 1
 c925:  x2 + x86 <= 1
 c926:  x3 + x86 <= 1
 c927:  x4 + x86 <= 1
 c928:  x7 + x86 <= 1
 c929:  x8 + x86 <= 1
 c930:  x11 + x86 <= 1
 c931:  x17 + x86 <= 1
 c932:  x21 + x86 <= 1
 c933:  x25 + x86 <= 1
 c934:  x28 + x86 <= 1
 c935:  x31 + x86 <= 1
 c936:  x32 + x86 <= 1
 c937:  x34 + x86 <= 1
 c938:  x37 + x86 <= 1
 c939:  x38 + x86 <= 1
 c940:  x39 + x86 <= 1
 c941:  x42 + x86 <= 1
 c942:  x43 + x86 <= 1
 c943:  x45 + x86 <= 1
 c944:  x5 + x87 <= 1
 c945:  x7 + x87 <= 1
 c946:  x8 + x87 <= 1
 c947:  x9 + x87 <= 1
 c948:  x10 + x87 <= 1
 c949:  x13 + x87 <= 1
 c950:  x16 + x87 <= 1
 c951:  x18 + x87 <= 1
 c952:  x19 + x87 <= 1
 c953:  x20 + x87 <= 1
 c954:  x21 + x87 <= 1
 c955:  x22 + x87 <= 1
 c956:  x27 + x87 <= 1
 c957:  x30 + x87 <= 1
 c958:  x31 + x87 <= 1
 c959:  x34 + x87 <= 1
 c960:  x37 + x87 <= 1
 c961:  x39 + x87 <= 1
 c962:  x40 + x87 <= 1
 c963:  x41 + x87 <= 1
 c964:  x42 + x87 <= 1
 c965:  x45 + x87 <= 1
 c966:  x6 + x88 <= 1
 c967:  x7 + x88 <= 1
 c968:  x9 + x88 <= 1
 c969:  x10 + x88 <= 1
 c970:  x14 + x88 <= 1
 c971:  x15 + x88 <= 1
 c972:  x16 + x88 <= 1
 c973:  x17 + x88 <= 1
 c974:  x18 + x88 <= 1
 c975:  x19 + x88 <= 1
 c976:  x21 + x88 <= 1
 c977:  x22 + x88 <= 1
 c978:  x23 + x88 <= 1
 c979:  x24 + x88 <= 1
 c980:  x27 + x88 <= 1
 c981:  x28 + x88 <= 1
 c982:  x29 + x88 <= 1
 c983:  x35 + x88 <= 1
 c984:  x37 + x88 <= 1
 c985:  x38 + x88 <= 1
 c986:  x41 + x88 <= 1
 c987:  x42 + x88 <= 1
 c988:  x45 + x88 <= 1
 c989:  x1 + x89 <= 1
 c990:  x4 + x89 <= 1
 c991:  x5 + x89 <= 1
 c992:  x6 + x89 <= 1
 c993:  x8 + x89 <= 1
 c994:  x9 + x89 <= 1
 c995:  x16 + x89 <= 1
 c996:  x18 + x89 <= 1
 c997:  x19 + x89 <= 1
 c998:  x22 + x89 <= 1
 c999:  x23 + x89 <= 1
 c1000: x25 + x89 <= 1
 c1001: x26 + x89 <= 1
 c1002: x27 + x89 <= 1
 c1003: x29 + x89 <= 1
 c1004: x30 + x89 <= 1
 c1005: x31 + x89 <= 1
 c1006: x34 + x89 <= 1
 c1007: x37 + x89 <= 1
 c1008: x40 + x89 <= 1
 c1009: x41 + x89 <= 1
 c1010: x42 + x89 <= 1
 c1011: x43 + x89 <= 1
 c1012: x44 + x89 <= 1
 c1013: x6 + x90 <= 1
 c1014: x14 + x90 <= 1
 c1015: x17 + x90 <= 1
 c1016: x18 + x90 <= 1
 c1017: x26 + x90 <= 1
 c1018: x29 + x90 <= 1
 c1019: x30 + x90 <= 1
 c1020: x32 + x90 <= 1
 c1021: x34 + x90 <= 1
 c1022: x35 + x90 <= 1
 c1023: x40 + x90 <= 1
 c1024: x42 + x90 <= 1
 c1025: x43 + x90 <= 1
Bounds
 0 <= x1 <= 1
 0 <= x2 <= 1
 0 <= x3 <= 1
 0 <= x4 <= 1
 0 <= x5 <= 1
 0 <= x6 <= 1
 0 <= x7 <= 1
 0 <= x8 <= 1
 0 <= x9 <= 1
 0 <= x10 <= 1
 0 <= x11 <= 1
 0 <= x12 <= 1
 0 <= x13 <= 1
 0 <= x14 <= 1
 0 <= x15 <= 1
 0 <= x16 <= 1
 0 <= x17 <= 1
 0 <= x18 <= 1
 0 <= x19 <= 1
 0 <= x20 <= 1
 0 <= x21 <= 1
 0 <= x22 <= 1
 0 <= x23 <= 1
 0 <= x24 <= 1
 0 <= x25 <= 1
 0 <= x26 <= 1
 0 <= x27 <= 1
 0 <= x28 <= 1
 0 <= x29 <= 1
 0 <= x30 <= 1
 0 <= x31 <= 1
 0 <= x32 <= 1
 0 <= x33 <= 1
 0 <= x34 <= 1
 0 <= x35 <= 1
 0 <= x36 <= 1
 0 <= x37 <= 1
 0 <= x38 <= 1
 0 <= x39 <= 1
 0 <= x40 <= 1
 0 <= x41 <= 1
 0 <= x42 <= 1
 0 <= x43 <= 1
 0 <= x44 <= 1
 0 <= x45 <= 1
 0 <= x46 <= 1
 0 <= x47 <= 1
 0 <= x48 <= 1
 0 <= x49 <= 1
 0 <= x50 <= 1
 0 <= x51 <= 1
 0 <= x52 <= 1
 0 <= x53 <= 1
 0 <= x54 <= 1
 0 <= x55 <= 1
 0 <= x56 <= 1
 0 <= x57 <= 1
 0 <= x58 <= 1
 0 <= x59 <= 1
 0 <= x60 <= 1
 0 <= x61 <= 1
 0 <= x62 <= 1
 0 <= x63 <= 1
 0 <= x64 <= 1
 0 <= x65 <= 1
 0 <= x66 <= 1
 0 <= x67 <= 1
 0 <= x68 <= 1
 0 <= x69 <= 1
 0 <= x70 <= 1
 0 <= x71 <= 1
 0 <= x72 <= 1
 0 <= x73 <= 1
 0 <= x74 <= 1
 0 <= x75 <= 1
 0 <= x76 <= 1
 0 <= x77 <= 1
 0 <= x78 <= 1
 0 <= x79 <= 1
 0 <= x80 <= 1
 0 <= x81 <= 1
 0 <= x82 <= 1
 0 <= x83 <= 1
 0 <= x84 <= 1
 0 <= x85 <= 1
 0 <= x86 <= 1
 0 <= x87 <= 1
 0 <= x88 <= 1
 0 <= x89 <= 1
 0 <= x90 <= 1
Binaries
 x1  x2  x3  x4  x5  x6  x7  x8  x9  x10  x11  x12  x13  x14  x15  x16  x17 
 x18  x19  x20  x21  x22  x23  x24  x25  x26  x27  x28  x29  x30  x31  x32 
 x33  x34  x35  x36  x37  x38  x39  x40  x41  x42  x43  x44  x45  x46  x47 
 x48  x49  x50  x51  x52  x53  x54  x55  x56  x57  x58  x59  x60  x61  x62 
 x63  x64  x65  x66  x67  x68  x69  x70  x71  x72  x73  x74  x75  x76  x77 
 x78  x79  x80  x81  x82  x83  x84  x85  x86  x87  x88  x89  x90 
End
